
Gurobi 11.0.3 (linux64, gurobi_cl) logging started Wed Sep  4 13:26:53 2024

Set parameter Username
Set parameter LogFile to value "gurobi.log"
Using license file /localhome/mei3/gurobi.lic
Academic license - for non-commercial use only - expires 2025-01-18

Gurobi Optimizer version 11.0.3 build v11.0.3rc0 (linux64 - "Ubuntu 20.04.6 LTS")
Copyright (c) 2024, Gurobi Optimization, LLC

Read LP format model from file workflow/LP_file/BCNexus.lp
Reading time = 1.24 seconds
cost: 293580 rows, 322683 columns, 3366258 nonzeros

CPU model: 13th Gen Intel(R) Core(TM) i9-13900K, instruction set [SSE2|AVX|AVX2]
Thread count: 32 physical cores, 32 logical processors, using up to 32 threads

Optimize a model with 293580 rows, 322683 columns and 3366258 nonzeros
Model fingerprint: 0x6221a422
Coefficient statistics:
  Matrix range     [3e-08, 8e+03]
  Objective range  [2e-05, 1e+04]
  Bounds range     [0e+00, 0e+00]
  RHS range        [1e-05, 1e+06]
Presolve time: 0.05s

Solved in 0 iterations and 0.05 seconds (0.03 work units)
Infeasible or unbounded model

Unable to retrieve attribute 'X'

